<?xml version = "1.0" standalone="yes"?>
<!-- This file has been generated by DOcplex version 2.23.222  -->
<CPLEXSolution version="1.0">
 <header
   problemName="CVRP"
   objectiveValue="8645.21"
  />
 <variables>
  <variable name="x_0_3" index="2" value="1.00000"/>
  <variable name="x_0_4" index="3" value="1.00000"/>
  <variable name="x_0_5" index="4" value="1.00000"/>
  <variable name="x_0_9" index="8" value="1.00000"/>
  <variable name="x_0_10" index="9" value="1.00000"/>
  <variable name="x_0_12" index="11" value="1.00000"/>
  <variable name="x_1_0" index="13" value="1.00000"/>
  <variable name="x_2_0" index="26" value="1.00000"/>
  <variable name="x_3_6" index="44" value="1.00000"/>
  <variable name="x_4_13" index="64" value="1.00000"/>
  <variable name="x_5_7" index="71" value="1.00000"/>
  <variable name="x_6_2" index="80" value="1.00000"/>
  <variable name="x_7_0" index="91" value="1.00000"/>
  <variable name="x_8_0" index="104" value="1.00000"/>
  <variable name="x_9_0" index="117" value="1.00000"/>
  <variable name="x_10_11" index="140" value="1.00000"/>
  <variable name="x_11_1" index="144" value="1.00000"/>
  <variable name="x_12_8" index="164" value="1.00000"/>
  <variable name="x_13_0" index="169" value="1.00000"/>
  <variable name="u_1" index="182" value="52.00000"/>
  <variable name="u_2" index="183" value="49.00000"/>
  <variable name="u_3" index="184" value="13.00000"/>
  <variable name="u_4" index="185" value="30.00000"/>
  <variable name="u_5" index="186" value="29.00000"/>
  <variable name="u_6" index="187" value="22.00000"/>
  <variable name="u_7" index="188" value="44.00000"/>
  <variable name="u_8" index="189" value="52.00000"/>
  <variable name="u_9" index="190" value="52.00000"/>
  <variable name="u_10" index="191" value="45.00000"/>
  <variable name="u_11" index="192" value="49.00000"/>
  <variable name="u_12" index="193" value="41.00000"/>
  <variable name="u_13" index="194" value="50.00000"/>
 </variables>
</CPLEXSolution>
